(set-info :smt-lib-version 2.6)
(set-info :category "crafted")
(set-logic QF_FF)
(define-sort FF0 () (_ FiniteField 52435875175126190479447740508185965837690552500527637822603658699938581184513))
(declare-fun return_n0_alt () FF0)
(declare-fun is_zero_n19_alt () FF0)
(declare-fun mul_n31_alt () FF0)
(declare-fun mul_n21_alt () FF0)
(declare-fun mul_n24_alt () FF0)
(declare-fun mul_n30_alt () FF0)
(declare-fun mul_n20_alt () FF0)
(declare-fun is_zero_n23_alt () FF0)
(declare-fun mul_n16_alt () FF0)
(declare-fun is_zero_inv_n32_alt () FF0)
(declare-fun a_n2_alt () FF0)
(declare-fun mul_n29_alt () FF0)
(declare-fun is_zero_n28_alt () FF0)
(declare-fun mul_n3_alt () FF0)
(declare-fun mul_n15_alt () FF0)
(declare-fun mul_n14_alt () FF0)
(declare-fun b_n1_alt () FF0)
(declare-fun mul_n4_alt () FF0)
(declare-fun is_zero_n26_alt () FF0)
(declare-fun mul_n10_alt () FF0)
(declare-fun is_zero_n13_alt () FF0)
(declare-fun is_zero_inv_n27_alt () FF0)
(declare-fun mul_n5_alt () FF0)
(declare-fun is_zero_inv_n25_alt () FF0)
(declare-fun mul_n17_alt () FF0)
(declare-fun is_zero_inv_n22_alt () FF0)
(declare-fun is_zero_n7_alt () FF0)
(declare-fun is_zero_inv_n18_alt () FF0)
(declare-fun is_zero_n9_alt () FF0)
(declare-fun mul_n11_alt () FF0)
(declare-fun is_zero_inv_n12_alt () FF0)
(declare-fun is_zero_inv_n8_alt () FF0)
(declare-fun is_zero_inv_n6_alt () FF0)
(declare-fun return_n0 () FF0)
(declare-fun is_zero_n19 () FF0)
(declare-fun mul_n31 () FF0)
(declare-fun mul_n21 () FF0)
(declare-fun mul_n24 () FF0)
(declare-fun mul_n30 () FF0)
(declare-fun mul_n20 () FF0)
(declare-fun is_zero_n23 () FF0)
(declare-fun mul_n16 () FF0)
(declare-fun is_zero_inv_n32 () FF0)
(declare-fun a_n2 () FF0)
(declare-fun mul_n29 () FF0)
(declare-fun is_zero_n28 () FF0)
(declare-fun mul_n3 () FF0)
(declare-fun mul_n15 () FF0)
(declare-fun mul_n14 () FF0)
(declare-fun b_n1 () FF0)
(declare-fun mul_n4 () FF0)
(declare-fun is_zero_n26 () FF0)
(declare-fun mul_n10 () FF0)
(declare-fun is_zero_n13 () FF0)
(declare-fun is_zero_inv_n27 () FF0)
(declare-fun mul_n5 () FF0)
(declare-fun is_zero_inv_n25 () FF0)
(declare-fun mul_n17 () FF0)
(declare-fun is_zero_inv_n22 () FF0)
(declare-fun is_zero_n7 () FF0)
(declare-fun is_zero_inv_n18 () FF0)
(declare-fun is_zero_n9 () FF0)
(declare-fun mul_n11 () FF0)
(declare-fun is_zero_inv_n12 () FF0)
(declare-fun is_zero_inv_n8 () FF0)
(declare-fun is_zero_inv_n6 () FF0)
(assert 
  (let ((let0 return_n0_alt))
  (let ((let1 (as ff2 FF0)))
  (let ((let2 (as ff52435875175126190479447740508185965837690552500527637822603658699938581184512 FF0)))
  (let ((let3 is_zero_n19_alt))
  (let ((let4 (ff.mul let3 let2)))
  (let ((let5 mul_n31_alt))
  (let ((let6 (ff.mul let5 let2)))
  (let ((let7 mul_n21_alt))
  (let ((let8 (ff.mul let7 let2)))
  (let ((let9 mul_n24_alt))
  (let ((let10 mul_n30_alt))
  (let ((let11 (ff.mul let10 let2)))
  (let ((let12 mul_n20_alt))
  (let ((let13 is_zero_n23_alt))
  (let ((let14 (ff.mul let13 let1)))
  (let ((let15 mul_n16_alt))
  (let ((let16 (ff.mul let15 let1)))
  (let ((let17 (ff.add let16 let14 let12 let11 let9 let8 let6 let4 let1)))
  (let ((let18 is_zero_inv_n32_alt))
  (let ((let19 (ff.mul let18 let17)))
  (let ((let20 (= let19 let0)))
  (let ((let21 (as ff1 FF0)))
  (let ((let22 (ff.add let4 let21)))
  (let ((let23 a_n2_alt))
  (let ((let24 (ff.mul let23 let22)))
  (let ((let25 (= let24 let5)))
  (let ((let26 mul_n29_alt))
  (let ((let27 (ff.mul let26 let13)))
  (let ((let28 (= let27 let10)))
  (let ((let29 is_zero_n28_alt))
  (let ((let30 (ff.mul let29 let2)))
  (let ((let31 (ff.add let30 let21)))
  (let ((let32 (ff.mul let31 let13)))
  (let ((let33 (= let32 let26)))
  (let ((let34 (as ff0 FF0)))
  (let ((let35 (as ff3 FF0)))
  (let ((let36 mul_n3_alt))
  (let ((let37 mul_n15_alt))
  (let ((let38 (ff.mul let37 let2)))
  (let ((let39 mul_n14_alt))
  (let ((let40 b_n1_alt))
  (let ((let41 (ff.mul let40 let2)))
  (let ((let42 mul_n4_alt))
  (let ((let43 is_zero_n26_alt))
  (let ((let44 (ff.mul let43 let2)))
  (let ((let45 mul_n10_alt))
  (let ((let46 (ff.mul let45 let2)))
  (let ((let47 is_zero_n13_alt))
  (let ((let48 (ff.add let4 let47 let46 let44 let42 let41 let39 let23 let38 let36 let35)))
  (let ((let49 (ff.mul let29 let48)))
  (let ((let50 (= let49 let34)))
  (let ((let51 is_zero_inv_n27_alt))
  (let ((let52 (ff.mul let51 let48)))
  (let ((let53 (= let52 let31)))
  (let ((let54 (as ff4 FF0)))
  (let ((let55 (ff.mul let36 let2)))
  (let ((let56 mul_n5_alt))
  (let ((let57 (ff.mul let56 let2)))
  (let ((let58 (ff.mul let23 let2)))
  (let ((let59 (ff.add let47 let46 let58 let57 let55 let54)))
  (let ((let60 (ff.mul let43 let59)))
  (let ((let61 (= let60 let34)))
  (let ((let62 (ff.add let44 let21)))
  (let ((let63 is_zero_inv_n25_alt))
  (let ((let64 (ff.mul let63 let59)))
  (let ((let65 (= let64 let62)))
  (let ((let66 (ff.mul let13 let2)))
  (let ((let67 (ff.add let66 let21)))
  (let ((let68 (as ff52435875175126190479447740508185965837690552500527637822603658699938581184511 FF0)))
  (let ((let69 (ff.mul let15 let68)))
  (let ((let70 (ff.add let69 let1)))
  (let ((let71 (ff.mul let70 let67)))
  (let ((let72 (= let71 let9)))
  (let ((let73 (ff.mul let39 let2)))
  (let ((let74 mul_n17_alt))
  (let ((let75 (ff.mul let74 let2)))
  (let ((let76 (ff.mul let12 let2)))
  (let ((let77 (ff.mul let47 let2)))
  (let ((let78 (ff.mul let45 let1)))
  (let ((let79 (ff.mul let15 let2)))
  (let ((let80 (ff.add let79 let78 let77 let76 let75 let73 let7 let37 let3 let35)))
  (let ((let81 (ff.mul let13 let80)))
  (let ((let82 (= let81 let34)))
  (let ((let83 is_zero_inv_n22_alt))
  (let ((let84 (ff.mul let83 let80)))
  (let ((let85 (= let84 let67)))
  (let ((let86 (ff.add let75 let21)))
  (let ((let87 (ff.mul let3 let68)))
  (let ((let88 (ff.mul let74 let1)))
  (let ((let89 (ff.mul let12 let1)))
  (let ((let90 (ff.add let89 let88 let87)))
  (let ((let91 (ff.mul let90 let86)))
  (let ((let92 (= let91 let7)))
  (let ((let93 (ff.mul let3 let1)))
  (let ((let94 (ff.mul let93 let86)))
  (let ((let95 (= let94 let12)))
  (let ((let96 (ff.mul let42 let2)))
  (let ((let97 is_zero_n7_alt))
  (let ((let98 (ff.mul let97 let2)))
  (let ((let99 (ff.add let58 let98 let96 let41 let73 let55 let54)))
  (let ((let100 (ff.mul let3 let99)))
  (let ((let101 (= let100 let34)))
  (let ((let102 is_zero_inv_n18_alt))
  (let ((let103 (ff.mul let102 let99)))
  (let ((let104 (= let103 let22)))
  (let ((let105 (ff.add let47 let23 let42 let39 let36 let2)))
  (let ((let106 (ff.mul let105 let15)))
  (let ((let107 (= let106 let74)))
  (let ((let108 is_zero_n9_alt))
  (let ((let109 (ff.mul let108 let2)))
  (let ((let110 (ff.add let109 let21)))
  (let ((let111 (ff.mul let23 let110)))
  (let ((let112 (= let111 let15)))
  (let ((let113 (ff.add let46 let21)))
  (let ((let114 (ff.mul let36 let1)))
  (let ((let115 (ff.mul let39 let1)))
  (let ((let116 (ff.mul let42 let1)))
  (let ((let117 (ff.mul let23 let1)))
  (let ((let118 (ff.mul let47 let1)))
  (let ((let119 (ff.add let118 let117 let116 let115 let114 let68)))
  (let ((let120 (ff.mul let119 let113)))
  (let ((let121 (= let120 let37)))
  (let ((let122 (ff.add let96 let58 let55 let21)))
  (let ((let123 (ff.mul let47 let68)))
  (let ((let124 (ff.add let123 let1)))
  (let ((let125 (ff.mul let124 let122)))
  (let ((let126 (= let125 let39)))
  (let ((let127 mul_n11_alt))
  (let ((let128 (ff.mul let127 let68)))
  (let ((let129 (ff.add let56 let78 let108 let128 let1)))
  (let ((let130 (ff.mul let47 let129)))
  (let ((let131 (= let130 let34)))
  (let ((let132 (ff.add let77 let21)))
  (let ((let133 is_zero_inv_n12_alt))
  (let ((let134 (ff.mul let133 let129)))
  (let ((let135 (= let134 let132)))
  (let ((let136 (ff.mul let56 let110)))
  (let ((let137 (= let136 let127)))
  (let ((let138 (ff.mul let122 let108)))
  (let ((let139 (= let138 let45)))
  (let ((let140 (ff.mul let97 let68)))
  (let ((let141 (ff.add let117 let140 let116 let114 let35)))
  (let ((let142 (ff.mul let108 let141)))
  (let ((let143 (= let142 let34)))
  (let ((let144 is_zero_inv_n8_alt))
  (let ((let145 (ff.mul let144 let141)))
  (let ((let146 (= let145 let110)))
  (let ((let147 (ff.add let56 let42 let41 let36 let35)))
  (let ((let148 (ff.mul let97 let147)))
  (let ((let149 (= let148 let34)))
  (let ((let150 (ff.add let98 let21)))
  (let ((let151 is_zero_inv_n6_alt))
  (let ((let152 (ff.mul let151 let147)))
  (let ((let153 (= let152 let150)))
  (let ((let154 (ff.add let42 let23 let36)))
  (let ((let155 (ff.add let58 let55 let21)))
  (let ((let156 (ff.mul let155 let154)))
  (let ((let157 (= let156 let56)))
  (let ((let158 (ff.add let40 let58 let55)))
  (let ((let159 (ff.add let23 let36)))
  (let ((let160 (ff.mul let159 let158)))
  (let ((let161 (= let160 let42)))
  (let ((let162 (ff.add let40 let58)))
  (let ((let163 (ff.mul let23 let162)))
  (let ((let164 (= let163 let36)))
  (let ((let165 (and let164 let161 let157 let153 let149 let146 let143 let139 let137 let135 let131 let126 let121 let112 let107 let104 let101 let95 let92 let85 let82 let72 let65 let61 let53 let50 let33 let28 let25 let20)))
  (let ((let166 return_n0))
  (let ((let167 is_zero_n19))
  (let ((let168 (ff.mul let167 let2)))
  (let ((let169 mul_n31))
  (let ((let170 (ff.mul let169 let2)))
  (let ((let171 mul_n21))
  (let ((let172 (ff.mul let171 let2)))
  (let ((let173 mul_n24))
  (let ((let174 mul_n30))
  (let ((let175 (ff.mul let174 let2)))
  (let ((let176 mul_n20))
  (let ((let177 is_zero_n23))
  (let ((let178 (ff.mul let177 let1)))
  (let ((let179 mul_n16))
  (let ((let180 (ff.mul let179 let1)))
  (let ((let181 (ff.add let180 let178 let176 let175 let173 let172 let170 let168 let1)))
  (let ((let182 is_zero_inv_n32))
  (let ((let183 (ff.mul let182 let181)))
  (let ((let184 (= let183 let166)))
  (let ((let185 (ff.add let168 let21)))
  (let ((let186 a_n2))
  (let ((let187 (ff.mul let186 let185)))
  (let ((let188 (= let187 let169)))
  (let ((let189 mul_n29))
  (let ((let190 (ff.mul let189 let177)))
  (let ((let191 (= let190 let174)))
  (let ((let192 is_zero_n28))
  (let ((let193 (ff.mul let192 let2)))
  (let ((let194 (ff.add let193 let21)))
  (let ((let195 (ff.mul let194 let177)))
  (let ((let196 (= let195 let189)))
  (let ((let197 mul_n3))
  (let ((let198 mul_n15))
  (let ((let199 (ff.mul let198 let2)))
  (let ((let200 mul_n14))
  (let ((let201 b_n1))
  (let ((let202 (ff.mul let201 let2)))
  (let ((let203 mul_n4))
  (let ((let204 is_zero_n26))
  (let ((let205 (ff.mul let204 let2)))
  (let ((let206 mul_n10))
  (let ((let207 (ff.mul let206 let2)))
  (let ((let208 is_zero_n13))
  (let ((let209 (ff.add let168 let208 let207 let205 let203 let202 let200 let186 let199 let197 let35)))
  (let ((let210 (ff.mul let192 let209)))
  (let ((let211 (= let210 let34)))
  (let ((let212 is_zero_inv_n27))
  (let ((let213 (ff.mul let212 let209)))
  (let ((let214 (= let213 let194)))
  (let ((let215 (ff.mul let197 let2)))
  (let ((let216 mul_n5))
  (let ((let217 (ff.mul let216 let2)))
  (let ((let218 (ff.mul let186 let2)))
  (let ((let219 (ff.add let208 let207 let218 let217 let215 let54)))
  (let ((let220 (ff.mul let204 let219)))
  (let ((let221 (= let220 let34)))
  (let ((let222 (ff.add let205 let21)))
  (let ((let223 is_zero_inv_n25))
  (let ((let224 (ff.mul let223 let219)))
  (let ((let225 (= let224 let222)))
  (let ((let226 (ff.mul let177 let2)))
  (let ((let227 (ff.add let226 let21)))
  (let ((let228 (ff.mul let179 let68)))
  (let ((let229 (ff.add let228 let1)))
  (let ((let230 (ff.mul let229 let227)))
  (let ((let231 (= let230 let173)))
  (let ((let232 (ff.mul let200 let2)))
  (let ((let233 mul_n17))
  (let ((let234 (ff.mul let233 let2)))
  (let ((let235 (ff.mul let176 let2)))
  (let ((let236 (ff.mul let208 let2)))
  (let ((let237 (ff.mul let206 let1)))
  (let ((let238 (ff.mul let179 let2)))
  (let ((let239 (ff.add let238 let237 let236 let235 let234 let232 let171 let198 let167 let35)))
  (let ((let240 (ff.mul let177 let239)))
  (let ((let241 (= let240 let34)))
  (let ((let242 is_zero_inv_n22))
  (let ((let243 (ff.mul let242 let239)))
  (let ((let244 (= let243 let227)))
  (let ((let245 (ff.add let234 let21)))
  (let ((let246 (ff.mul let167 let68)))
  (let ((let247 (ff.mul let233 let1)))
  (let ((let248 (ff.mul let176 let1)))
  (let ((let249 (ff.add let248 let247 let246)))
  (let ((let250 (ff.mul let249 let245)))
  (let ((let251 (= let250 let171)))
  (let ((let252 (ff.mul let167 let1)))
  (let ((let253 (ff.mul let252 let245)))
  (let ((let254 (= let253 let176)))
  (let ((let255 (ff.mul let203 let2)))
  (let ((let256 is_zero_n7))
  (let ((let257 (ff.mul let256 let2)))
  (let ((let258 (ff.add let218 let257 let255 let202 let232 let215 let54)))
  (let ((let259 (ff.mul let167 let258)))
  (let ((let260 (= let259 let34)))
  (let ((let261 is_zero_inv_n18))
  (let ((let262 (ff.mul let261 let258)))
  (let ((let263 (= let262 let185)))
  (let ((let264 (ff.add let208 let186 let203 let200 let197 let2)))
  (let ((let265 (ff.mul let264 let179)))
  (let ((let266 (= let265 let233)))
  (let ((let267 is_zero_n9))
  (let ((let268 (ff.mul let267 let2)))
  (let ((let269 (ff.add let268 let21)))
  (let ((let270 (ff.mul let186 let269)))
  (let ((let271 (= let270 let179)))
  (let ((let272 (ff.add let207 let21)))
  (let ((let273 (ff.mul let197 let1)))
  (let ((let274 (ff.mul let200 let1)))
  (let ((let275 (ff.mul let203 let1)))
  (let ((let276 (ff.mul let186 let1)))
  (let ((let277 (ff.mul let208 let1)))
  (let ((let278 (ff.add let277 let276 let275 let274 let273 let68)))
  (let ((let279 (ff.mul let278 let272)))
  (let ((let280 (= let279 let198)))
  (let ((let281 (ff.add let255 let218 let215 let21)))
  (let ((let282 (ff.mul let208 let68)))
  (let ((let283 (ff.add let282 let1)))
  (let ((let284 (ff.mul let283 let281)))
  (let ((let285 (= let284 let200)))
  (let ((let286 mul_n11))
  (let ((let287 (ff.mul let286 let68)))
  (let ((let288 (ff.add let216 let237 let267 let287 let1)))
  (let ((let289 (ff.mul let208 let288)))
  (let ((let290 (= let289 let34)))
  (let ((let291 (ff.add let236 let21)))
  (let ((let292 is_zero_inv_n12))
  (let ((let293 (ff.mul let292 let288)))
  (let ((let294 (= let293 let291)))
  (let ((let295 (ff.mul let216 let269)))
  (let ((let296 (= let295 let286)))
  (let ((let297 (ff.mul let281 let267)))
  (let ((let298 (= let297 let206)))
  (let ((let299 (ff.mul let256 let68)))
  (let ((let300 (ff.add let276 let299 let275 let273 let35)))
  (let ((let301 (ff.mul let267 let300)))
  (let ((let302 (= let301 let34)))
  (let ((let303 is_zero_inv_n8))
  (let ((let304 (ff.mul let303 let300)))
  (let ((let305 (= let304 let269)))
  (let ((let306 (ff.add let216 let203 let202 let197 let35)))
  (let ((let307 (ff.mul let256 let306)))
  (let ((let308 (= let307 let34)))
  (let ((let309 (ff.add let257 let21)))
  (let ((let310 is_zero_inv_n6))
  (let ((let311 (ff.mul let310 let306)))
  (let ((let312 (= let311 let309)))
  (let ((let313 (ff.add let203 let186 let197)))
  (let ((let314 (ff.add let218 let215 let21)))
  (let ((let315 (ff.mul let314 let313)))
  (let ((let316 (= let315 let216)))
  (let ((let317 (ff.add let201 let218 let215)))
  (let ((let318 (ff.add let186 let197)))
  (let ((let319 (ff.mul let318 let317)))
  (let ((let320 (= let319 let203)))
  (let ((let321 (ff.add let201 let218)))
  (let ((let322 (ff.mul let186 let321)))
  (let ((let323 (= let322 let197)))
  (let ((let324 (and let323 let320 let316 let312 let308 let305 let302 let298 let296 let294 let290 let285 let280 let271 let266 let263 let260 let254 let251 let244 let241 let231 let225 let221 let214 let211 let196 let191 let188 let184)))
  (let ((let325 (= let166 let0)))
  (let ((let326 (not let325)))
  (let ((let327 (= let186 let23)))
  (let ((let328 (= let201 let40)))
  (let ((let329 (and let328 let327)))
  (let ((let330 (and let329 let326 let324 let165)))
  let330
)))))))))))))))))))))))))))))))))))))))))))))))))))))))))))))))))))))))))))))))))))))))))))))))))))))))))))))))))))))))))))))))))))))))))))))))))))))))))))))))))))))))))))))))))))))))))))))))))))))))))))))))))))))))))))))))))))))))))))))))))))))))))))))))))))))))))))))))))))))))))))))))))))))))))))))))))))))))))))))))))))))))))))
)
(check-sat)
